r = [
0,84,55,6,27,38,21,12,70,29,40,0
];
p = [
0,2,16,25,14,20,25,16,26,24,19,0
];
e = [
0,14,19,15,7,6,15,15,14,11,12,0
];
d = [
0,241,190,162,146,134,168,76,114,102,101,243
];
d_bar = [
0,243,204,185,159,152,191,90,137,124,118,243
];
w = [
0,7,1.357142857,0.652173913,0.538461538,0.333333333,0.652173913,1.071428571,0.608695652,0.5,0.705882353,0
];
